c Result of efficient AIG-to-CNF conversion using package CNF
p cnf 508 1922
-2 3 317 398 411 0
2 -411 0
2 -3 0
2 -398 0
2 -317 0
-3 4 225 231 243 0
3 -243 0
3 -4 0
3 -231 0
3 -225 0
-4 5 130 143 150 0
-4 5 -130 -143 150 0
4 -150 0
4 -130 143 0
4 -5 0
4 130 -143 0
5 -33 -41 0
5 -6 -41 0
5 34 -41 0
-5 41 0
-5 6 33 -34 0
-6 7 32 0
6 -7 0
6 -32 0
-7 8 23 28 29 0
7 -29 0
7 -8 0
7 -28 0
7 -23 0
-8 9 10 11 17 0
8 -17 0
8 -9 0
8 -11 0
8 -10 0
-9 495 496 0
9 -495 0
9 -496 0
-10 485 486 0
10 -485 0
10 -486 0
-11 12 14 15 16 0
11 -16 0
11 -12 0
11 -15 0
11 -14 0
-12 497 498 499 13 0
12 -13 0
12 -499 0
12 -497 0
12 -498 0
-13 484 485 0
13 -484 0
13 -485 0
-14 493 494 0
14 -493 0
14 -494 0
-15 491 492 0
15 -491 0
15 -492 0
-16 488 489 0
16 -488 0
16 -489 0
-17 487 488 18 20 0
17 -487 0
17 -20 0
17 -18 0
17 -488 0
-18 489 490 491 19 0
18 -19 0
18 -491 0
18 -489 0
18 -490 0
-19 492 493 0
19 -492 0
19 -493 0
-20 477 478 21 22 0
20 -477 0
20 -22 0
20 -21 0
20 -478 0
-21 483 484 0
21 -483 0
21 -484 0
-22 500 501 0
22 -500 0
22 -501 0
-23 480 481 24 25 0
23 -480 0
23 -25 0
23 -24 0
23 -481 0
-24 502 503 0
24 -502 0
24 -503 0
-25 486 487 26 27 0
25 -486 0
25 -27 0
25 -26 0
25 -487 0
-26 479 480 0
26 -479 0
26 -480 0
-27 482 483 0
27 -482 0
27 -483 0
-28 476 477 481 482 0
28 -482 0
28 -481 0
28 -476 0
28 -477 0
-29 494 495 30 31 0
29 -494 0
29 -31 0
29 -30 0
29 -495 0
-30 496 497 0
30 -496 0
30 -497 0
-31 499 500 0
31 -499 0
31 -500 0
-32 503 504 0
32 -503 0
32 -504 0
-33 504 505 0
33 -504 0
33 -505 0
34 35 -36 0
34 -35 -40 0
-34 -35 40 0
-34 35 36 0
-35 505 506 0
35 -505 0
35 -506 0
36 37 -38 0
36 -37 -39 0
-36 -37 39 0
-36 37 38 0
-37 506 507 0
37 -506 0
37 -507 0
38 -450 507 0
38 -449 -507 0
-38 450 507 0
-38 449 -507 0
39 -448 507 0
39 -447 -507 0
-39 448 507 0
-39 447 -507 0
40 -444 -506 507 0
40 -446 506 507 0
-40 -507 0
-40 446 506 0
-40 444 -506 0
41 42 88 -105 115 0
-41 -115 0
-41 -42 0
-41 105 0
-41 -88 0
-42 43 66 68 0
42 -43 0
42 -66 0
42 -68 0
-43 -44 -65 0
-43 44 65 0
43 44 -65 0
43 -44 65 0
44 -484 -485 0
44 -485 -45 0
44 -484 -45 0
-44 484 45 0
-44 485 45 0
-44 484 485 0
45 -485 -486 0
45 -486 -46 0
45 -485 -46 0
-45 485 46 0
-45 486 46 0
-45 485 486 0
46 -486 -487 0
46 -487 -47 0
46 -486 -47 0
-46 486 47 0
-46 487 47 0
-46 486 487 0
47 -487 -488 0
47 -487 -489 -48 0
47 -488 -489 0
47 -488 -48 0
-47 488 48 0
-47 487 489 48 0
-47 488 489 0
-47 487 488 0
48 -489 -490 0
48 -490 -49 0
48 -489 -49 0
-48 489 49 0
-48 490 49 0
-48 489 490 0
49 -490 -491 0
49 -491 -50 0
49 -490 -50 0
-49 490 50 0
-49 491 50 0
-49 490 491 0
50 -491 -492 0
50 -492 -51 0
50 -491 -51 0
-50 491 51 0
-50 492 51 0
-50 491 492 0
51 -492 -493 0
51 -493 -52 0
51 -492 -52 0
-51 492 52 0
-51 493 52 0
-51 492 493 0
52 -493 -494 0
52 -494 -53 0
52 -493 -53 0
-52 493 53 0
-52 494 53 0
-52 493 494 0
53 -494 -495 0
53 -495 -54 0
53 -494 -54 0
-53 494 54 0
-53 495 54 0
-53 494 495 0
54 -495 -496 0
54 -496 -55 0
54 -495 -55 0
-54 495 55 0
-54 496 55 0
-54 495 496 0
55 -496 -497 0
55 -496 -498 -56 0
55 -497 -498 0
55 -497 -56 0
-55 497 56 0
-55 496 498 56 0
-55 497 498 0
-55 496 497 0
56 -498 -499 0
56 -498 -500 -57 0
56 -499 -500 0
56 -499 -57 0
-56 499 57 0
-56 498 500 57 0
-56 499 500 0
-56 498 499 0
57 -500 -501 0
57 -501 -58 0
57 -500 -58 0
-57 500 58 0
-57 501 58 0
-57 500 501 0
58 -501 -502 0
58 -502 -59 0
58 -501 -59 0
-58 501 59 0
-58 502 59 0
-58 501 502 0
59 -502 -503 0
59 -503 -60 0
59 -502 -60 0
-59 502 60 0
-59 503 60 0
-59 502 503 0
60 -32 -61 0
60 -32 -62 0
-60 32 0
-60 61 62 0
61 -503 -504 0
-61 503 0
-61 504 0
62 -33 -63 0
62 -33 -64 0
-62 33 0
-62 63 64 0
63 -504 -505 0
-63 504 0
-63 505 0
-64 506 0
-64 505 507 0
64 -505 -506 0
64 -506 -507 0
65 483 -484 0
65 -483 484 0
-65 -483 -484 0
-65 483 484 0
-66 -45 -67 0
-66 45 67 0
66 45 -67 0
66 -45 67 0
67 484 -485 0
67 -484 485 0
-67 -484 -485 0
-67 484 485 0
-68 69 81 83 0
68 -69 0
68 -81 0
68 -83 0
-69 70 -77 -79 0
-69 477 70 77 79 0
69 77 -79 0
69 -477 79 0
69 -70 0
69 -77 79 0
-70 71 73 -74 -76 0
-70 -71 -73 -74 -76 0
-70 71 73 74 76 0
-70 -71 -73 74 76 0
70 71 -73 0
70 -71 73 0
70 74 -76 0
70 -74 76 0
71 -482 -483 0
71 -483 -72 0
71 -482 -72 0
-71 482 72 0
-71 483 72 0
-71 482 483 0
72 -483 -484 0
72 -484 -44 0
72 -483 -44 0
-72 483 44 0
-72 484 44 0
-72 483 484 0
73 481 -482 0
73 -481 482 0
-73 -481 -482 0
-73 481 482 0
74 -480 -481 0
74 -481 -75 0
74 -480 -75 0
-74 480 75 0
-74 481 75 0
-74 480 481 0
75 -481 -482 0
75 -482 -71 0
75 -481 -71 0
-75 481 71 0
-75 482 71 0
-75 481 482 0
76 479 -480 0
76 -479 480 0
-76 -479 -480 0
-76 479 480 0
77 476 -478 0
77 476 -479 -78 0
-77 -476 0
-77 478 78 0
-77 478 479 0
78 -479 -480 0
78 -480 -74 0
78 -479 -74 0
-78 479 74 0
-78 480 74 0
-78 479 480 0
79 478 -80 0
79 479 -80 78 0
-79 80 0
-79 -478 -78 0
-79 -478 -479 0
-80 476 477 0
80 -476 0
80 -477 0
-81 -75 -82 0
-81 75 82 0
81 75 -82 0
81 -75 82 0
82 480 -481 0
82 -480 481 0
-82 -480 -481 0
-82 480 481 0
-83 84 86 0
83 -84 0
83 -86 0
-84 -78 -85 0
-84 78 85 0
84 78 -85 0
84 -78 85 0
85 478 -479 0
85 -478 479 0
-85 -478 -479 0
-85 478 479 0
-86 -72 -87 0
-86 72 87 0
86 72 -87 0
86 -72 87 0
87 482 -483 0
87 -482 483 0
-87 -482 -483 0
-87 482 483 0
-88 89 103 0
88 -89 0
88 -103 0
-89 90 93 94 0
89 -90 0
89 -93 0
89 -94 0
-90 -49 47 -91 92 0
-90 49 -47 91 -92 0
-90 49 47 91 92 0
-90 -49 -47 -91 -92 0
90 -49 91 0
90 49 -91 0
90 47 -92 0
90 -47 92 0
91 489 -490 0
91 -489 490 0
-91 -489 -490 0
-91 489 490 0
92 486 -487 0
92 -486 487 0
-92 -486 -487 0
-92 486 487 0
-93 487 -488 489 -48 0
-93 -487 488 -489 -48 0
-93 487 488 489 48 0
-93 487 -488 -489 48 0
93 -487 -488 0
93 488 489 -48 0
93 -488 489 48 0
93 -487 48 0
93 -488 -489 -48 0
93 487 488 -489 0
-94 95 100 0
94 -95 0
94 -100 0
-95 52 96 99 0
-95 -52 96 -99 0
95 -96 0
95 -52 99 0
95 52 -99 0
-96 -54 51 -97 98 0
-96 54 -51 97 -98 0
-96 54 51 97 98 0
-96 -54 -51 -97 -98 0
96 -54 97 0
96 54 -97 0
96 51 -98 0
96 -51 98 0
97 494 -495 0
97 -494 495 0
-97 -494 -495 0
-97 494 495 0
98 491 -492 0
98 -491 492 0
-98 -491 -492 0
-98 491 492 0
99 492 -493 0
99 -492 493 0
-99 -492 -493 0
-99 492 493 0
-100 -53 50 -101 102 0
-100 53 -50 101 -102 0
-100 53 50 101 102 0
-100 -53 -50 -101 -102 0
100 -53 101 0
100 53 -101 0
100 50 -102 0
100 -50 102 0
101 493 -494 0
101 -493 494 0
-101 -493 -494 0
-101 493 494 0
102 490 -491 0
102 -490 491 0
-102 -490 -491 0
-102 490 491 0
-103 -46 -104 0
-103 46 104 0
103 46 -104 0
103 -46 104 0
104 485 -486 0
104 -485 486 0
-104 -485 -486 0
-104 485 486 0
105 106 -108 0
-105 -106 0
-105 108 0
106 64 -107 0
106 -64 107 0
-106 -64 -107 0
-106 64 107 0
107 504 -505 0
107 -504 505 0
-107 -504 -505 0
-107 504 505 0
108 109 -110 0
108 -109 -113 0
-108 -109 113 0
-108 109 110 0
109 -505 -507 0
109 -505 506 0
109 505 -506 507 0
-109 505 -507 0
-109 -505 -506 507 0
-109 505 506 0
110 -39 -111 0
110 -38 111 0
-110 38 111 0
-110 39 -111 0
111 -37 112 0
-111 37 0
-111 -112 0
112 -506 -507 0
-112 506 0
-112 507 0
113 -114 111 0
113 -444 507 -111 0
-113 114 111 0
-113 444 -111 0
-113 -507 -111 0
114 -446 507 0
114 -445 -507 0
-114 446 507 0
-114 445 -507 0
-115 116 128 0
115 -116 0
115 -128 0
-116 117 118 121 126 0
116 -126 0
116 -117 0
116 -121 0
116 -118 0
-117 496 -497 498 -56 0
-117 -496 497 -498 -56 0
-117 496 497 498 56 0
-117 496 -497 -498 56 0
117 -496 -497 0
117 497 498 -56 0
117 -497 498 56 0
117 -496 56 0
117 -497 -498 -56 0
117 496 497 -498 0
-118 55 119 120 0
-118 -55 119 -120 0
118 -119 0
118 -55 120 0
118 55 -120 0
-119 498 -499 500 -57 0
-119 -498 499 -500 -57 0
-119 498 499 500 57 0
-119 498 -499 -500 57 0
119 -498 -499 0
119 499 500 -57 0
119 -499 500 57 0
119 -498 57 0
119 -499 -500 -57 0
119 498 499 -500 0
120 495 -496 0
120 -495 496 0
-120 -495 -496 0
-120 495 496 0
-121 122 124 0
121 -122 0
121 -124 0
122 60 -123 0
122 -60 123 0
-122 -60 -123 0
-122 60 123 0
123 502 -503 0
123 -502 503 0
-123 -502 -503 0
-123 502 503 0
124 62 -125 0
124 -62 125 0
-124 -62 -125 0
-124 62 125 0
125 503 -504 0
125 -503 504 0
-125 -503 -504 0
-125 503 504 0
-126 -58 -127 0
-126 58 127 0
126 58 -127 0
126 -58 127 0
127 500 -501 0
127 -500 501 0
-127 -500 -501 0
-127 500 501 0
128 59 -129 0
128 -59 129 0
-128 -59 -129 0
-128 59 129 0
129 501 -502 0
129 -501 502 0
-129 -501 -502 0
-129 501 502 0
130 6 -131 0
-130 -6 0
-130 131 0
131 33 -132 0
131 -33 -139 0
-131 -33 139 0
-131 33 132 0
132 35 -133 0
132 -35 -136 0
-132 -35 136 0
-132 35 133 0
133 37 -134 0
133 -37 -135 0
-133 -37 135 0
-133 37 134 0
134 -455 507 0
134 -454 -507 0
-134 455 507 0
-134 454 -507 0
135 -453 507 0
135 -452 -507 0
-135 453 507 0
-135 452 -507 0
136 37 -137 0
136 -37 -138 0
-136 -37 138 0
-136 37 137 0
137 -451 507 0
137 -450 -507 0
-137 451 507 0
-137 450 -507 0
138 -449 507 0
138 -448 -507 0
-138 449 507 0
-138 448 -507 0
139 35 -140 0
-139 -35 0
-139 140 0
140 37 -141 0
140 -37 -142 0
-140 -37 142 0
-140 37 141 0
141 -447 507 0
141 -446 -507 0
-141 447 507 0
-141 446 -507 0
142 -445 507 0
142 -444 -507 0
-142 445 507 0
-142 444 -507 0
143 42 88 115 -144 0
-143 144 0
-143 -42 0
-143 -115 0
-143 -88 0
144 106 -145 0
144 -106 -148 0
-144 -106 148 0
-144 106 145 0
145 109 -146 0
145 -109 -147 0
-145 -109 147 0
-145 109 146 0
146 111 -134 0
146 -111 -135 0
-146 -111 135 0
-146 111 134 0
147 111 -137 0
147 -111 -138 0
-147 -111 138 0
-147 111 137 0
148 109 -149 0
-148 -109 0
-148 149 0
149 111 -141 0
149 -111 -142 0
-149 -111 142 0
-149 111 141 0
-150 151 212 -218 -222 0
-150 151 212 218 222 0
150 -212 0
150 218 -222 0
150 -151 0
150 -218 222 0
-151 152 201 207 0
-151 152 -201 -207 0
151 -152 0
151 -201 207 0
151 201 -207 0
-152 153 164 -171 -180 0
-152 -153 -164 -171 -180 0
-152 153 164 171 180 0
-152 -153 -164 171 180 0
152 153 -164 0
152 -153 164 0
152 171 -180 0
152 -171 180 0
153 6 -154 0
-153 -6 0
-153 154 0
154 33 -155 0
154 -33 -161 0
-154 -33 161 0
-154 33 155 0
155 35 -156 0
155 -35 -159 0
-155 -35 159 0
-155 35 156 0
156 37 -157 0
156 -37 -158 0
-156 -37 158 0
-156 37 157 0
157 -456 507 0
157 -455 -507 0
-157 456 507 0
-157 455 -507 0
158 -454 507 0
158 -453 -507 0
-158 454 507 0
-158 453 -507 0
159 -37 -38 0
159 37 -160 0
-159 37 160 0
-159 -37 38 0
160 -452 507 0
160 -451 -507 0
-160 452 507 0
-160 451 -507 0
161 35 -162 0
161 -35 -163 0
-161 -35 163 0
-161 35 162 0
162 37 -39 0
162 -37 -114 0
-162 -37 114 0
-162 37 39 0
163 -444 507 37 0
-163 444 0
-163 -507 0
-163 -37 0
164 42 88 115 -165 0
-164 165 0
-164 -42 0
-164 -115 0
-164 -88 0
165 106 -166 0
165 -106 -169 0
-165 -106 169 0
-165 106 166 0
166 109 -167 0
166 -109 -168 0
-166 -109 168 0
-166 109 167 0
167 111 -157 0
167 -111 -158 0
-167 -111 158 0
-167 111 157 0
168 -38 -111 0
168 111 -160 0
-168 38 -111 0
-168 111 160 0
169 -109 -163 0
169 109 -170 0
-169 109 170 0
-169 -109 163 0
170 -114 -111 0
170 -39 111 0
-170 39 111 0
-170 114 -111 0
171 -32 6 0
171 6 -172 0
-171 -6 0
-171 32 172 0
172 33 -173 0
172 -33 -177 0
-172 -33 177 0
-172 33 173 0
173 35 -174 0
173 -35 -176 0
-173 -35 176 0
-173 35 174 0
174 -507 -175 0
174 -506 -175 0
174 -461 506 507 0
-174 -506 175 0
-174 -507 175 0
-174 461 506 507 0
175 -459 507 0
175 -458 -507 0
-175 459 507 0
-175 458 -507 0
176 -507 -134 0
176 -506 -134 0
176 -457 506 507 0
-176 -506 134 0
-176 -507 134 0
-176 457 506 507 0
177 35 -178 0
177 -35 -179 0
-177 -35 179 0
-177 35 178 0
178 37 -135 0
178 -37 -137 0
-178 -37 137 0
-178 37 135 0
179 37 -138 0
179 -37 -141 0
-179 -37 141 0
-179 37 138 0
180 86 181 -188 200 0
-180 -200 0
-180 -86 0
-180 188 0
-180 -181 0
-181 69 182 183 184 0
181 -184 0
181 -69 0
181 -183 0
181 -182 0
-182 122 126 128 0
182 -122 0
182 -126 0
182 -128 0
-183 84 103 0
183 -84 0
183 -103 0
-184 117 185 186 187 0
184 -187 0
184 -117 0
184 -186 0
184 -185 0
-185 43 81 0
185 -43 0
185 -81 0
-186 93 100 0
186 -93 0
186 -100 0
-187 66 90 0
187 -66 0
187 -90 0
188 124 -189 0
188 -124 -198 0
-188 -124 198 0
-188 124 189 0
189 106 -190 0
189 -106 -195 0
-189 -106 195 0
-189 106 190 0
190 109 -191 0
190 -109 -193 0
-190 -109 193 0
-190 109 191 0
191 111 -192 0
191 -111 -175 0
-191 -111 175 0
-191 111 192 0
192 -461 507 0
192 -460 -507 0
-192 461 507 0
-192 460 -507 0
193 -111 -134 0
193 111 -194 0
-193 111 194 0
-193 -111 134 0
194 -457 507 0
194 -456 -507 0
-194 457 507 0
-194 456 -507 0
195 109 -196 0
195 -109 -197 0
-195 -109 197 0
-195 109 196 0
196 111 -135 0
196 -111 -137 0
-196 -111 137 0
-196 111 135 0
197 111 -138 0
197 -111 -141 0
-197 -111 141 0
-197 111 138 0
198 106 -199 0
-198 -106 0
-198 199 0
199 109 111 -142 0
-199 142 0
-199 -111 0
-199 -109 0
-200 95 118 0
200 -95 0
200 -118 0
201 6 -202 0
-201 -6 0
-201 202 0
202 -33 -34 0
202 33 -203 0
-202 33 203 0
-202 -33 34 0
203 35 -204 0
203 -35 -206 0
-203 -35 206 0
-203 35 204 0
204 -37 -157 0
204 37 -205 0
-204 37 205 0
-204 -37 157 0
205 -458 507 0
205 -457 -507 0
-205 458 507 0
-205 457 -507 0
206 37 -158 0
206 -37 -160 0
-206 -37 160 0
-206 37 158 0
207 42 88 115 -208 0
-207 208 0
-207 -42 0
-207 -115 0
-207 -88 0
208 -106 -108 0
208 106 -209 0
-208 106 209 0
-208 -106 108 0
209 109 -210 0
209 -109 -211 0
-209 -109 211 0
-209 109 210 0
210 -111 -157 0
210 111 -205 0
-210 111 205 0
-210 -111 157 0
211 111 -158 0
211 -111 -160 0
-211 -111 160 0
-211 111 158 0
212 -33 -214 0
212 -6 -214 0
212 213 -214 0
-212 214 0
-212 6 33 -213 0
213 -445 506 507 35 0
-213 -35 0
-213 -507 0
-213 445 0
-213 -506 0
214 42 88 215 -217 0
-214 217 0
-214 -42 0
-214 -215 0
-214 -88 0
-215 121 128 216 0
215 -121 0
215 -128 0
215 -216 0
-216 117 118 0
216 -117 0
216 -118 0
217 126 -198 0
-217 -126 0
-217 198 0
218 6 -219 0
-218 -6 0
-218 219 0
219 33 -220 0
219 -33 -221 0
-219 -33 221 0
-219 33 220 0
220 35 -159 0
220 -35 -162 0
-220 -35 162 0
-220 35 159 0
221 35 -163 0
-221 -35 0
-221 163 0
222 42 88 115 -223 0
-222 223 0
-222 -42 0
-222 -115 0
-222 -88 0
223 -106 -221 0
223 106 -224 0
-223 106 224 0
-223 -106 221 0
224 109 -168 0
224 -109 -170 0
-224 -109 170 0
-224 109 168 0
225 226 -228 0
225 -226 228 0
-225 -226 -228 0
-225 226 228 0
226 6 33 -227 0
-226 -6 0
-226 -33 0
-226 227 0
227 35 -136 0
227 -35 -140 0
-227 -35 140 0
-227 35 136 0
228 42 88 115 -229 0
-228 229 0
-228 -42 0
-228 -115 0
-228 -88 0
229 106 -230 0
-229 -106 0
-229 230 0
230 109 -147 0
230 -109 -149 0
-230 -109 149 0
-230 109 147 0
-231 -232 -236 240 0
-231 232 236 240 0
231 -240 0
231 -232 236 0
231 232 -236 0
232 6 -233 0
-232 -6 0
-232 233 0
233 33 -234 0
233 -33 -235 0
-233 -33 235 0
-233 33 234 0
234 35 -176 0
234 -35 -178 0
-234 -35 178 0
-234 35 176 0
235 35 -179 0
235 -35 37 -142 0
-235 35 179 0
-235 -35 142 0
-235 -35 -37 0
236 42 88 115 -237 0
-236 237 0
-236 -42 0
-236 -115 0
-236 -88 0
237 106 -238 0
237 -106 -239 0
-237 -106 239 0
-237 106 238 0
238 109 -193 0
238 -109 -196 0
-238 -109 196 0
-238 109 193 0
239 109 -197 0
239 -109 111 -142 0
-239 -109 -111 0
-239 109 197 0
-239 -109 142 0
240 -33 -241 0
240 -6 -241 0
240 139 -241 0
-240 241 0
-240 6 33 -139 0
241 42 88 115 -242 0
-241 242 0
-241 -42 0
-241 -115 0
-241 -88 0
242 106 -148 0
-242 -106 0
-242 148 0
-243 244 252 259 291 0
-243 -244 -252 259 291 0
243 -291 0
243 -244 252 0
243 -259 0
243 244 -252 0
244 -32 6 0
244 6 -245 0
-244 -6 0
-244 32 245 0
245 -33 -203 0
245 33 -246 0
-245 33 246 0
-245 -33 203 0
246 35 -247 0
246 -35 -249 0
-246 -35 249 0
-246 35 247 0
247 -507 -248 0
247 -506 -248 0
247 -466 506 507 0
-247 -506 248 0
-247 -507 248 0
-247 466 506 507 0
248 -464 507 0
248 -463 -507 0
-248 464 507 0
-248 463 -507 0
249 37 -250 0
249 -37 -251 0
-249 -37 251 0
-249 37 250 0
250 -462 507 0
250 -461 -507 0
-250 462 507 0
-250 461 -507 0
251 -460 507 0
251 -459 -507 0
-251 460 507 0
-251 459 -507 0
252 86 181 200 -253 0
-252 253 0
-252 -86 0
-252 -200 0
-252 -181 0
253 -105 -124 0
253 124 -254 0
-253 105 -124 0
-253 124 254 0
254 -106 -209 0
254 106 -255 0
-254 106 255 0
-254 -106 209 0
255 109 -256 0
255 -109 -258 0
-255 -109 258 0
-255 109 256 0
256 111 -257 0
256 -111 -248 0
-256 -111 248 0
-256 111 257 0
257 -466 507 0
257 -465 -507 0
-257 466 507 0
-257 465 -507 0
258 111 -250 0
258 -111 -251 0
-258 -111 251 0
-258 111 250 0
-259 260 270 -278 -284 0
-259 -260 -270 -278 -284 0
-259 260 270 278 284 0
-259 -260 -270 278 284 0
259 260 -270 0
259 -260 270 0
259 278 -284 0
259 -278 284 0
260 -32 6 0
260 6 -261 0
-260 -6 0
-260 32 261 0
261 33 -262 0
261 -33 -268 0
-261 -33 268 0
-261 33 262 0
262 35 -263 0
262 -35 -266 0
-262 -35 266 0
-262 35 263 0
263 37 -264 0
263 -37 -265 0
-263 -37 265 0
-263 37 264 0
264 -467 507 0
264 -466 -507 0
-264 467 507 0
-264 466 -507 0
265 -465 507 0
265 -464 -507 0
-265 465 507 0
-265 464 -507 0
266 -37 -192 0
266 37 -267 0
-266 37 267 0
-266 -37 192 0
267 -463 507 0
267 -462 -507 0
-267 463 507 0
-267 462 -507 0
268 -35 -133 0
268 35 -269 0
-268 35 269 0
-268 -35 133 0
269 37 -175 0
269 -37 -194 0
-269 -37 194 0
-269 37 175 0
270 86 181 200 -271 0
-270 271 0
-270 -86 0
-270 -200 0
-270 -181 0
271 -124 -229 0
271 124 -272 0
-271 124 272 0
-271 -124 229 0
272 106 -273 0
272 -106 -276 0
-272 -106 276 0
-272 106 273 0
273 109 -274 0
273 -109 -275 0
-273 -109 275 0
-273 109 274 0
274 111 -264 0
274 -111 -265 0
-274 -111 265 0
-274 111 264 0
275 -111 -192 0
275 111 -267 0
-275 111 267 0
-275 -111 192 0
276 -109 -146 0
276 109 -277 0
-276 109 277 0
-276 -109 146 0
277 111 -175 0
277 -111 -194 0
-277 -111 194 0
-277 111 175 0
278 7 -32 -131 0
278 7 32 -279 0
-278 -7 0
-278 32 279 0
-278 -32 131 0
-279 33 280 0
-279 -33 283 0
279 33 -280 0
279 -33 -283 0
-280 35 281 0
-280 -35 263 0
280 -35 -263 0
280 35 -281 0
281 -507 -282 0
281 -506 -282 0
281 -471 506 507 0
-281 -506 282 0
-281 -507 282 0
-281 471 506 507 0
282 -469 507 0
282 -468 -507 0
-282 469 507 0
-282 468 -507 0
283 35 -266 0
283 -35 -269 0
-283 -35 269 0
-283 35 266 0
284 86 181 200 -285 0
-284 285 0
-284 -86 0
-284 -200 0
-284 -181 0
285 -124 -144 0
285 124 -286 0
-285 124 286 0
-285 -124 144 0
286 106 -287 0
286 -106 -290 0
-286 -106 290 0
-286 106 287 0
287 -109 -274 0
287 109 -288 0
-287 109 288 0
-287 -109 274 0
288 111 -289 0
288 -111 -282 0
-288 -111 282 0
-288 111 289 0
289 -471 507 0
289 -470 -507 0
-289 471 507 0
-289 470 -507 0
290 109 -275 0
290 -109 -277 0
-290 -109 277 0
-290 109 275 0
-291 292 296 -302 -310 0
-291 -292 -296 -302 -310 0
-291 292 296 302 310 0
-291 -292 -296 302 310 0
291 292 -296 0
291 -292 296 0
291 302 -310 0
291 -302 310 0
292 -32 6 0
292 6 -293 0
-292 -6 0
-292 32 293 0
293 -33 -234 0
293 33 -294 0
-293 33 294 0
-293 -33 234 0
294 -35 -174 0
294 35 -295 0
-294 35 295 0
-294 -35 174 0
295 37 -265 0
295 -37 -267 0
-295 -37 267 0
-295 37 265 0
296 86 181 200 -297 0
-296 297 0
-296 -86 0
-296 -200 0
-296 -181 0
297 124 -298 0
297 -124 -301 0
-297 -124 301 0
-297 124 298 0
298 -106 -238 0
298 106 -299 0
-298 106 299 0
-298 -106 238 0
299 -109 -191 0
299 109 -300 0
-299 109 300 0
-299 -109 191 0
300 111 -265 0
300 -111 -267 0
-300 -111 267 0
-300 111 265 0
301 106 -239 0
-301 -106 0
-301 239 0
302 7 -32 -202 0
302 7 32 -303 0
-302 -7 0
-302 32 303 0
-302 -32 202 0
-303 33 304 0
-303 -33 246 0
303 -33 -246 0
303 33 -304 0
-304 35 305 0
-304 -35 307 0
304 35 -305 0
304 -35 -307 0
-305 -506 306 0
-305 -507 306 0
-305 474 506 507 0
305 -507 -306 0
305 -506 -306 0
305 -474 506 507 0
306 -472 507 0
306 -471 -507 0
-306 472 507 0
-306 471 -507 0
307 37 -308 0
307 -37 -309 0
-307 -37 309 0
-307 37 308 0
308 -470 507 0
308 -469 -507 0
-308 470 507 0
-308 469 -507 0
309 -468 507 0
309 -467 -507 0
-309 468 507 0
-309 467 -507 0
310 86 181 200 -311 0
-310 311 0
-310 -86 0
-310 -200 0
-310 -181 0
311 -124 -208 0
311 124 -312 0
-311 124 312 0
-311 -124 208 0
312 -106 -255 0
312 106 -313 0
-312 106 313 0
-312 -106 255 0
313 109 -314 0
313 -109 -316 0
-313 -109 316 0
-313 109 314 0
314 -111 -306 0
314 111 -315 0
-314 111 315 0
-314 -111 306 0
315 -474 507 0
315 -473 -507 0
-315 474 507 0
-315 473 -507 0
316 111 -308 0
316 -111 -309 0
-316 -111 309 0
-316 111 308 0
-317 318 372 376 381 0
-317 318 -372 -376 381 0
317 -381 0
317 -372 376 0
317 -318 0
317 372 -376 0
-318 319 -347 -353 359 0
-318 319 347 353 359 0
318 -359 0
318 -347 353 0
318 -319 0
318 347 -353 0
-319 320 325 338 0
-319 -42 320 325 0
319 -325 0
319 -320 0
319 42 -338 0
320 -33 -321 0
320 -6 -321 0
320 161 -321 0
-320 321 0
-320 6 33 -161 0
321 69 83 322 -323 0
-321 323 0
-321 -69 0
-321 -322 0
-321 -83 0
-322 66 185 0
322 -66 0
322 -185 0
323 88 115 -324 0
-323 -88 0
-323 -115 0
-323 324 0
324 106 -169 0
-324 -106 0
-324 169 0
-325 -330 334 0
-325 326 -336 0
-325 326 334 0
-325 -330 -336 0
325 -326 330 0
325 -334 336 0
326 6 -327 0
-326 -6 0
-326 327 0
327 33 -328 0
327 -33 -329 0
-327 -33 329 0
-327 33 328 0
328 -35 -36 0
328 35 -206 0
-328 35 206 0
-328 -35 36 0
329 35 -40 0
-329 -35 0
-329 40 0
330 88 115 -331 0
-330 -88 0
-330 -115 0
-330 331 0
331 106 -332 0
331 -106 -333 0
-331 -106 333 0
-331 106 332 0
332 -109 -110 0
332 109 -211 0
-332 109 211 0
-332 -109 110 0
333 109 -113 0
-333 -109 0
-333 113 0
334 6 -335 0
-334 -6 0
-334 335 0
335 -33 -227 0
335 33 -268 0
-335 33 268 0
-335 -33 227 0
336 88 115 -337 0
-336 -88 0
-336 -115 0
-336 337 0
337 -106 -230 0
337 106 -276 0
-337 106 276 0
-337 -106 230 0
-338 -339 343 344 0
-338 341 343 344 0
338 -343 0
338 -344 0
338 339 -341 0
339 6 -340 0
-339 -6 0
-339 340 0
340 33 -177 0
340 -33 -213 0
-340 -33 213 0
-340 33 177 0
341 88 115 -342 0
-341 -88 0
-341 -115 0
-341 342 0
342 106 -195 0
342 -106 -199 0
-342 -106 199 0
-342 106 195 0
-343 -326 336 0
-343 330 -334 0
-343 330 336 0
-343 -326 -334 0
343 326 -330 0
343 334 -336 0
344 -33 -345 0
344 -6 -345 0
344 329 -345 0
-344 345 0
-344 6 33 -329 0
345 88 115 -346 0
-345 -88 0
-345 -115 0
-345 346 0
346 106 -333 0
-346 -106 0
-346 333 0
347 7 -32 -233 0
347 7 32 -348 0
-347 -7 0
-347 32 348 0
-347 -32 233 0
-348 33 349 0
-348 -33 294 0
348 -33 -294 0
348 33 -349 0
-349 35 350 0
-349 -35 352 0
349 35 -350 0
349 -35 -352 0
-350 37 351 0
-350 -37 289 0
350 -37 -289 0
350 37 -351 0
351 -473 507 0
351 -472 -507 0
-351 473 507 0
-351 472 -507 0
352 -37 -264 0
352 37 -282 0
-352 37 282 0
-352 -37 264 0
353 86 181 200 -354 0
-353 354 0
-353 -86 0
-353 -200 0
-353 -181 0
354 -124 -237 0
354 124 -355 0
-354 124 355 0
-354 -124 237 0
355 -106 -299 0
355 106 -356 0
-355 106 356 0
-355 -106 299 0
356 109 -357 0
356 -109 -358 0
-356 -109 358 0
-356 109 357 0
357 -111 -289 0
357 111 -351 0
-357 111 351 0
-357 -111 289 0
358 -111 -264 0
358 111 -282 0
-358 111 282 0
-358 -111 264 0
359 360 -365 0
359 -360 365 0
-359 -360 -365 0
-359 360 365 0
360 -32 6 0
360 6 -361 0
-360 -6 0
-360 32 361 0
361 -33 -155 0
361 33 -362 0
-361 33 362 0
-361 -33 155 0
362 35 -363 0
362 -35 -364 0
-362 -35 364 0
-362 35 363 0
363 37 -248 0
363 -37 -250 0
-363 -37 250 0
-363 37 248 0
364 -37 -205 0
364 37 -251 0
-364 37 251 0
-364 -37 205 0
365 86 89 322 -366 0
-365 366 0
-365 -86 0
-365 -322 0
-365 -89 0
366 69 183 216 -367 0
-366 367 0
-366 -69 0
-366 -216 0
-366 -183 0
367 124 182 -368 0
367 -124 182 -324 0
-367 -182 0
-367 124 368 0
-367 -124 324 0
-368 106 369 0
-368 -106 166 0
368 -106 -166 0
368 106 -369 0
369 109 -370 0
369 -109 -371 0
-369 -109 371 0
-369 109 370 0
370 111 -248 0
370 -111 -250 0
-370 -111 250 0
-370 111 248 0
371 -111 -205 0
371 111 -251 0
-371 111 251 0
-371 -111 205 0
372 7 -32 -327 0
372 7 32 -373 0
-372 -7 0
-372 32 373 0
-372 -32 327 0
-373 33 374 0
-373 -33 375 0
373 33 -374 0
373 -33 -375 0
-374 35 307 0
-374 -35 247 0
374 -35 -247 0
374 35 -307 0
375 -35 -204 0
375 35 -249 0
-375 35 249 0
-375 -35 204 0
376 86 181 200 -377 0
-376 377 0
-376 -86 0
-376 -200 0
-376 -181 0
377 -124 -331 0
377 124 -378 0
-377 124 378 0
-377 -124 331 0
378 106 -379 0
378 -106 -380 0
-378 -106 380 0
-378 106 379 0
379 -109 -256 0
379 109 -316 0
-379 109 316 0
-379 -109 256 0
380 -109 -210 0
380 109 -258 0
-380 109 258 0
-380 -109 210 0
-381 382 387 -393 -395 0
-381 -382 -387 -393 -395 0
-381 382 387 393 395 0
-381 -382 -387 393 395 0
381 382 -387 0
381 -382 387 0
381 393 -395 0
381 -393 395 0
382 7 -32 -219 0
382 7 32 -383 0
-382 -7 0
-382 32 383 0
-382 -32 219 0
-383 33 384 0
-383 -33 386 0
383 33 -384 0
383 -33 -386 0
-384 35 385 0
-384 -35 363 0
384 -35 -363 0
384 35 -385 0
385 -37 -257 0
385 37 -309 0
-385 37 309 0
-385 -37 257 0
386 -35 -156 0
386 35 -364 0
-386 35 364 0
-386 -35 156 0
387 86 181 200 -388 0
-387 388 0
-387 -86 0
-387 -200 0
-387 -181 0
388 -124 -223 0
388 124 -389 0
-388 124 389 0
-388 -124 223 0
389 106 -390 0
389 -106 -392 0
-389 -106 392 0
-389 106 390 0
390 -109 -370 0
390 109 -391 0
-390 109 391 0
-390 -109 370 0
391 -111 -257 0
391 111 -309 0
-391 111 309 0
-391 -111 257 0
392 -109 -167 0
392 109 -371 0
-392 109 371 0
-392 -109 167 0
393 -32 6 0
393 6 -394 0
-393 -6 0
-393 32 394 0
394 -33 -132 0
394 33 -283 0
-394 33 283 0
-394 -33 132 0
395 86 181 200 -396 0
-395 396 0
-395 -86 0
-395 -200 0
-395 -181 0
396 -124 -242 0
396 124 -397 0
-396 124 397 0
-396 -124 242 0
397 -106 -145 0
397 106 -290 0
-397 106 290 0
-397 -106 145 0
-398 399 402 -406 -408 0
-398 -399 -402 -406 -408 0
-398 399 402 406 408 0
-398 -399 -402 406 408 0
398 399 -402 0
398 -399 402 0
398 406 -408 0
398 -406 408 0
399 7 -32 -340 0
399 7 32 -400 0
-399 -7 0
-399 32 400 0
-399 -32 340 0
-400 33 401 0
-400 -33 173 0
400 -33 -173 0
400 33 -401 0
-401 35 352 0
-401 -35 295 0
401 -35 -295 0
401 35 -352 0
402 86 181 200 -403 0
-402 403 0
-402 -86 0
-402 -200 0
-402 -181 0
403 -124 -342 0
403 124 -404 0
-403 124 404 0
-403 -124 342 0
404 -106 -190 0
404 106 -405 0
-404 106 405 0
-404 -106 190 0
405 -109 -300 0
405 109 -358 0
-405 109 358 0
-405 -109 300 0
406 -32 6 0
406 6 -407 0
-406 -6 0
-406 32 407 0
407 -33 -328 0
407 33 -375 0
-407 33 375 0
-407 -33 328 0
408 86 181 200 -409 0
-408 409 0
-408 -86 0
-408 -200 0
-408 -181 0
409 -124 -346 0
409 124 -410 0
-409 124 410 0
-409 -124 346 0
410 -106 -332 0
410 106 -380 0
-410 106 380 0
-410 -106 332 0
-411 412 416 422 432 0
-411 -412 -416 422 432 0
411 -432 0
411 -412 416 0
411 -422 0
411 412 -416 0
412 7 -32 -335 0
412 7 32 -413 0
-412 -7 0
-412 32 413 0
-412 -32 335 0
-413 33 414 0
-413 -33 262 0
413 -33 -262 0
413 33 -414 0
-414 35 415 0
-414 -35 281 0
414 -35 -281 0
414 35 -415 0
-415 -506 351 0
-415 -507 351 0
-415 475 506 507 0
415 -507 -351 0
415 -506 -351 0
415 -475 506 507 0
416 86 181 200 -417 0
-416 417 0
-416 -86 0
-416 -200 0
-416 -181 0
417 -124 -337 0
417 124 -418 0
-417 124 418 0
-417 -124 337 0
418 -106 -273 0
418 106 -419 0
-418 106 419 0
-418 -106 273 0
419 -109 -288 0
419 109 -420 0
-419 109 420 0
-419 -109 288 0
420 -111 -351 0
420 111 -421 0
-420 111 421 0
-420 -111 351 0
421 -475 507 0
421 -474 -507 0
-421 475 507 0
-421 474 -507 0
-422 423 -427 0
-422 423 429 0
422 -423 0
422 427 -429 0
423 -33 -424 0
423 -6 -424 0
423 235 -424 0
-423 424 0
-423 6 33 -235 0
424 68 93 -425 426 0
-424 -426 0
-424 -68 0
-424 425 0
-424 -93 0
425 103 128 -301 0
-425 -103 0
-425 -128 0
-425 301 0
-426 43 94 116 187 0
426 -187 0
426 -43 0
426 -116 0
426 -94 0
427 -32 6 0
427 6 -428 0
-427 -6 0
-427 32 428 0
428 -33 -220 0
428 33 -386 0
-428 33 386 0
-428 -33 220 0
429 86 181 200 -430 0
-429 430 0
-429 -86 0
-429 -200 0
-429 -181 0
430 124 -431 0
430 33 -124 -221 0
-430 124 431 0
-430 -124 221 0
-430 -33 -124 0
431 -106 -224 0
431 106 -392 0
-431 106 392 0
-431 -106 224 0
-432 427 433 443 0
-432 -429 433 443 0
432 -443 0
432 -433 0
432 -427 429 0
433 434 -438 0
433 -434 438 0
-433 -434 -438 0
-433 434 438 0
434 7 -32 -154 0
434 7 32 -435 0
-434 -7 0
-434 32 435 0
-434 -32 154 0
-435 33 436 0
-435 -33 362 0
435 -33 -362 0
435 33 -436 0
-436 35 437 0
-436 -35 385 0
436 -35 -385 0
436 35 -437 0
-437 -37 308 0
-437 37 306 0
437 37 -306 0
437 -37 -308 0
438 86 181 200 -439 0
-438 439 0
-438 -86 0
-438 -200 0
-438 -181 0
439 -124 -165 0
439 124 -440 0
-439 124 440 0
-439 -124 165 0
440 -106 -369 0
440 106 -441 0
-440 106 441 0
-440 -106 369 0
441 -109 -391 0
441 109 -442 0
-441 109 442 0
-441 -109 391 0
442 111 -306 0
442 -111 -308 0
-442 -111 308 0
-442 111 306 0
443 -42 -339 0
443 -339 341 0
-443 339 0
-443 42 -341 0
-508 0
2 0

